0 2 33 12 39 55 54 40 42 25 63 16 51 54 39
2 0 9 43 40 8 55 49 57 59 7 2 38 16 15
33 9 0 2 32 57 38 54 46 11 30 34 27 36 32
12 43 2 0 53 62 23 45 27 3 14 51 3 60 22
39 40 32 53 0 15 42 63 11 37 63 38 5 39 53
55 8 57 62 15 0 58 59 36 29 43 29 14 17 4
54 55 38 23 42 58 0 7 8 15 39 58 3 17 31
40 49 54 45 63 59 7 0 14 20 62 15 58 54 8
42 57 46 27 11 36 8 14 0 13 35 51 9 59 37
25 59 11 3 37 29 15 20 13 0 22 17 25 37 5
63 7 30 14 63 43 39 62 35 22 0 3 46 37 5
16 2 34 51 38 29 58 15 51 17 3 0 55 15 31
51 38 27 3 5 14 3 58 9 25 46 55 0 59 8
54 16 36 60 39 17 17 54 59 37 37 15 59 0 63
39 15 32 22 53 4 31 8 37 5 5 31 8 63 0
